10
0 137 659 6 276 728 73 116 5 162
137 0 303 141 62 72 228 78 224 43
659 303 0 121 89 301 9 98 321 398
6 141 121 0 46 110 306 0 183 917
276 62 89 46 0 10 24 115 327 26
728 72 301 110 10 0 150 38 440 82
73 228 9 306 24 150 0 131 40 3
116 78 98 0 115 38 131 0 416 138
5 224 321 183 327 440 40 416 0 271
162 43 398 917 26 82 3 138 271 0